(declare-fun var0 () String)
(assert (str.in.re var0 (re.++ (re.+ (re.union (str.to.re "dd") (str.to.re "ee"))) (re.++ (re.+ (re.+ (str.to.re "c"))) (re.++ (re.+ (re.* (str.to.re "b"))) (re.++ (re.+ (re.union (str.to.re "999") (str.to.re "aa"))) (re.++ (re.union (re.union (str.to.re "6") (str.to.re "777")) (re.* (str.to.re "8"))) (re.++ (re.+ (re.union (str.to.re "4") (str.to.re "5"))) (re.++ (re.union (re.union (str.to.re "11") (str.to.re "22")) (re.* (str.to.re "333"))) (re.++ (re.+ (re.+ (str.to.re "000"))) (re.++ (re.* (re.union (str.to.re "}}}") (str.to.re "~~~"))) (re.++ (re.+ (re.+ (str.to.re "|"))) (re.++ (re.union (re.+ (str.to.re "__")) (re.union (str.to.re "`") (str.to.re "{"))) (re.++ (re.union (re.* (str.to.re "]]]")) (re.+ (str.to.re "^^^"))) (re.++ (re.* (re.+ (str.to.re "\\\\"))) (re.++ (re.+ (re.+ (str.to.re "[[["))) (re.++ (re.* (re.union (str.to.re "???") (str.to.re "@@"))) (re.++ (re.+ (re.+ (str.to.re ">>>"))) (re.++ (re.* (re.* (str.to.re "="))) (re.++ (re.union (re.+ (str.to.re ";;;")) (re.+ (str.to.re "<<<"))) (re.++ (re.+ (re.* (str.to.re ":::"))) (re.++ (re.union (re.* (str.to.re "...")) (re.* (str.to.re "/"))) (re.++ (re.union (re.* (str.to.re ",")) (re.* (str.to.re "--"))) (re.++ (re.* (re.union (str.to.re "*") (str.to.re "+"))) (re.++ (re.+ (re.* (str.to.re ")))"))) (re.++ (re.* (re.* (str.to.re "(("))) (re.++ (re.union (re.union (str.to.re "%%") (str.to.re "&")) (re.+ (str.to.re "''"))) (re.++ (re.+ (re.+ (str.to.re "$"))) (re.++ (re.union (re.union (str.to.re "Z") (str.to.re "!")) (re.union (str.to.re """""") (str.to.re "##"))) (re.++ (re.* (re.union (str.to.re "X") (str.to.re "YY"))) (re.++ (re.+ (re.+ (str.to.re "WWW"))) (re.++ (re.union (re.+ (str.to.re "U")) (re.+ (str.to.re "VV"))) (re.++ (re.union (re.union (str.to.re "Q") (str.to.re "RR")) (re.union (str.to.re "SS") (str.to.re "TTT"))) (re.++ (re.+ (re.* (str.to.re "PPP"))) (re.++ (re.* (re.union (str.to.re "N") (str.to.re "OO"))) (re.++ (re.union (re.+ (str.to.re "K")) (re.union (str.to.re "L") (str.to.re "MMM"))) (re.++ (re.union (re.union (str.to.re "G") (str.to.re "HH")) (re.union (str.to.re "III") (str.to.re "JJ"))) (re.++ (re.* (re.+ (str.to.re "FFF"))) (re.++ (re.union (re.* (str.to.re "C")) (re.union (str.to.re "D") (str.to.re "EEE"))) (re.++ (re.union (re.union (str.to.re "yyy") (str.to.re "z")) (re.union (str.to.re "AAA") (str.to.re "BB"))) (re.++ (re.+ (re.union (str.to.re "w") (str.to.re "xx"))) (re.++ (re.+ (re.union (str.to.re "u") (str.to.re "vv"))) (re.++ (re.union (re.* (str.to.re "rrr")) (re.union (str.to.re "s") (str.to.re "ttt"))) (re.++ (re.* (re.+ (str.to.re "q"))) (re.++ (re.union (re.+ (str.to.re "o")) (re.+ (str.to.re "pp"))) (re.++ (re.* (re.* (str.to.re "nn"))) (re.++ (re.union (re.* (str.to.re "ll")) (re.+ (str.to.re "mmm"))) (re.++ (re.union (re.+ (str.to.re "j")) (re.* (str.to.re "k"))) (re.++ (re.+ (re.+ (str.to.re "ii"))) (re.++ (re.union (re.* (str.to.re "ff")) (re.union (str.to.re "ggg") (str.to.re "h"))) (re.++ (re.+ (re.union (str.to.re "d") (str.to.re "eee"))) (re.++ (re.* (re.union (str.to.re "bbb") (str.to.re "cc"))) (re.++ (re.union (re.+ (str.to.re "99")) (re.* (str.to.re "aa"))) (re.++ (re.+ (re.+ (str.to.re "8"))) (re.++ (re.+ (re.+ (str.to.re "77"))) (re.++ (re.* (re.+ (str.to.re "6"))) (re.++ (re.union (re.* (str.to.re "333")) (re.union (str.to.re "4") (str.to.re "5"))) (re.++ (re.+ (re.union (str.to.re "1") (str.to.re "22"))) (re.+ (re.* (str.to.re "0")))))))))))))))))))))))))))))))))))))))))))))))))))))))))))))
(check-sat)